n = 9;
n2 = 15;
n3 = 39;
match12 = [|
17, 88, 79, 76, 71, 82, 68, 79, 79, 79, 68, 68, 82, 79, 74|
84, 86, 20, 81, 70, 84, 78, 20, 20, 84, 78, 76, 84, 20, 76|
81, 81, 81, 74, 52, 67, 52, 81, 81, 78, 52, 52, 67, 81, 0|
76, 0, 93, 74, 80, 80, 73, 93, 93, 86, 78, 74, 80, 93, 81|
80, 80, 85, 85, 80, 0, 85, 85, 85, 80, 85, 91, 0, 85, 67|
71, 86, 80, 74, 84, 80, 81, 80, 80, 0, 78, 78, 80, 80, 78|
74, 74, 79, 0, 80, 85, 81, 79, 79, 74, 81, 83, 85, 79, 74|
81, 78, 78, 81, 48, 85, 19, 78, 78, 78, 0, 19, 85, 78, 52|
80, 80, 80, 80, 0, 80, 50, 80, 80, 84, 48, 36, 80, 80, 52|];
match23 = [|
75, 84, 88, 71, 88, 74, 79, 83, 0, 79, 76, 74, 88, 80, 88, 88, 81, 74, 80, 76, 0, 87, 88, 88, 81, 76, 88, 87, 88, 88, 88, 88, 81, 81, 80, 88, 76, 81, 88|
80, 80, 93, 86, 93, 74, 71, 78, 76, 75, 0, 74, 93, 80, 93, 93, 77, 74, 76, 0, 76, 74, 93, 93, 77, 76, 93, 74, 93, 93, 93, 93, 77, 81, 80, 93, 93, 78, 93|
85, 84, 0, 80, 0, 79, 79, 89, 88, 79, 93, 79, 0, 85, 0, 0, 81, 84, 80, 93, 88, 74, 0, 0, 77, 88, 0, 78, 0, 0, 0, 0, 81, 81, 80, 0, 73, 78, 0|
90, 72, 79, 74, 79, 0, 83, 89, 74, 83, 74, 0, 79, 85, 79, 79, 85, 89, 84, 74, 74, 83, 79, 79, 81, 11, 79, 83, 79, 79, 79, 79, 81, 74, 80, 79, 58, 81, 79|
76, 52, 80, 84, 80, 80, 44, 44, 80, 44, 80, 80, 80, 80, 80, 80, 50, 80, 48, 80, 80, 36, 80, 80, 50, 80, 80, 36, 80, 80, 80, 80, 50, 52, 0, 80, 15, 48, 80|
20, 68, 85, 80, 85, 85, 88, 80, 80, 88, 80, 85, 85, 0, 85, 85, 85, 15, 84, 80, 80, 91, 85, 85, 85, 80, 85, 87, 85, 85, 85, 85, 85, 67, 80, 85, 70, 85, 85|
81, 50, 81, 81, 81, 81, 19, 46, 77, 19, 73, 81, 81, 85, 81, 81, 12, 81, 15, 73, 77, 19, 81, 81, 15, 81, 81, 19, 81, 81, 81, 81, 15, 52, 50, 81, 81, 19, 81|
85, 84, 0, 80, 0, 79, 79, 89, 88, 79, 93, 79, 0, 85, 0, 0, 81, 84, 80, 93, 88, 74, 0, 0, 77, 88, 0, 78, 0, 0, 0, 0, 81, 81, 80, 0, 73, 78, 0|
85, 84, 0, 80, 0, 79, 79, 89, 88, 79, 93, 79, 0, 85, 0, 0, 81, 84, 80, 93, 88, 74, 0, 0, 77, 88, 0, 78, 0, 0, 0, 0, 81, 81, 80, 0, 73, 78, 0|
75, 76, 80, 0, 80, 74, 79, 78, 71, 79, 86, 74, 80, 80, 80, 80, 81, 79, 80, 86, 71, 78, 80, 80, 77, 76, 80, 78, 80, 80, 80, 80, 77, 78, 84, 80, 93, 78, 80|
81, 48, 78, 78, 78, 81, 19, 48, 81, 15, 78, 81, 78, 85, 78, 78, 19, 74, 19, 78, 81, 19, 78, 78, 19, 81, 78, 19, 78, 78, 78, 78, 19, 52, 48, 78, 78, 0, 78|
91, 48, 74, 78, 74, 83, 17, 43, 87, 17, 74, 83, 74, 91, 74, 74, 23, 87, 20, 74, 87, 0, 74, 74, 19, 78, 74, 4, 74, 74, 74, 74, 19, 52, 36, 74, 74, 19, 74|
20, 68, 85, 80, 85, 85, 88, 80, 80, 88, 80, 85, 85, 0, 85, 85, 85, 15, 84, 80, 80, 91, 85, 85, 85, 80, 85, 87, 85, 85, 85, 85, 85, 67, 80, 85, 70, 85, 85|
85, 84, 0, 80, 0, 79, 79, 89, 88, 79, 93, 79, 0, 85, 0, 0, 81, 84, 80, 93, 88, 74, 0, 0, 77, 88, 0, 78, 0, 0, 0, 0, 81, 81, 80, 0, 73, 78, 0|
70, 19, 81, 78, 81, 74, 56, 11, 81, 56, 81, 74, 81, 67, 81, 81, 56, 70, 52, 81, 81, 52, 81, 81, 56, 70, 81, 48, 81, 81, 81, 81, 56, 0, 52, 81, 74, 52, 81|];
match31 = [|
76, 84, 70, 80, 20, 75, 90, 81, 76, 100, 100, 100, 100, 100, 100, 100, 100, 100, 100, 100, 100, 100, 100, 100, 100, 100, 100, 100, 100, 100, 100, 100, 100, 100, 100, 100, 100, 100, 100|
74, 78, 19, 80, 68, 76, 72, 48, 52, 100, 100, 100, 100, 100, 100, 100, 100, 100, 100, 100, 100, 100, 100, 100, 100, 100, 100, 100, 100, 100, 100, 100, 100, 100, 100, 100, 100, 100, 100|
79, 20, 81, 93, 85, 80, 79, 78, 80, 100, 100, 100, 100, 100, 100, 100, 100, 100, 100, 100, 100, 100, 100, 100, 100, 100, 100, 100, 100, 100, 100, 100, 100, 100, 100, 100, 100, 100, 100|
79, 84, 78, 86, 80, 0, 74, 78, 84, 100, 100, 100, 100, 100, 100, 100, 100, 100, 100, 100, 100, 100, 100, 100, 100, 100, 100, 100, 100, 100, 100, 100, 100, 100, 100, 100, 100, 100, 100|
79, 20, 81, 93, 85, 80, 79, 78, 80, 100, 100, 100, 100, 100, 100, 100, 100, 100, 100, 100, 100, 100, 100, 100, 100, 100, 100, 100, 100, 100, 100, 100, 100, 100, 100, 100, 100, 100, 100|
76, 81, 74, 74, 85, 74, 0, 81, 80, 100, 100, 100, 100, 100, 100, 100, 100, 100, 100, 100, 100, 100, 100, 100, 100, 100, 100, 100, 100, 100, 100, 100, 100, 100, 100, 100, 100, 100, 100|
65, 81, 56, 71, 88, 79, 83, 19, 44, 100, 100, 100, 100, 100, 100, 100, 100, 100, 100, 100, 100, 100, 100, 100, 100, 100, 100, 100, 100, 100, 100, 100, 100, 100, 100, 100, 100, 100, 100|
76, 81, 11, 78, 80, 78, 89, 48, 44, 100, 100, 100, 100, 100, 100, 100, 100, 100, 100, 100, 100, 100, 100, 100, 100, 100, 100, 100, 100, 100, 100, 100, 100, 100, 100, 100, 100, 100, 100|
17, 84, 81, 76, 80, 71, 74, 81, 80, 100, 100, 100, 100, 100, 100, 100, 100, 100, 100, 100, 100, 100, 100, 100, 100, 100, 100, 100, 100, 100, 100, 100, 100, 100, 100, 100, 100, 100, 100|
65, 81, 56, 75, 88, 79, 83, 15, 44, 100, 100, 100, 100, 100, 100, 100, 100, 100, 100, 100, 100, 100, 100, 100, 100, 100, 100, 100, 100, 100, 100, 100, 100, 100, 100, 100, 100, 100, 100|
88, 86, 81, 0, 80, 86, 74, 78, 80, 100, 100, 100, 100, 100, 100, 100, 100, 100, 100, 100, 100, 100, 100, 100, 100, 100, 100, 100, 100, 100, 100, 100, 100, 100, 100, 100, 100, 100, 100|
76, 81, 74, 74, 85, 74, 0, 81, 80, 100, 100, 100, 100, 100, 100, 100, 100, 100, 100, 100, 100, 100, 100, 100, 100, 100, 100, 100, 100, 100, 100, 100, 100, 100, 100, 100, 100, 100, 100|
79, 20, 81, 93, 85, 80, 79, 78, 80, 100, 100, 100, 100, 100, 100, 100, 100, 100, 100, 100, 100, 100, 100, 100, 100, 100, 100, 100, 100, 100, 100, 100, 100, 100, 100, 100, 100, 100, 100|
82, 84, 67, 80, 0, 80, 85, 85, 80, 100, 100, 100, 100, 100, 100, 100, 100, 100, 100, 100, 100, 100, 100, 100, 100, 100, 100, 100, 100, 100, 100, 100, 100, 100, 100, 100, 100, 100, 100|
79, 20, 81, 93, 85, 80, 79, 78, 80, 100, 100, 100, 100, 100, 100, 100, 100, 100, 100, 100, 100, 100, 100, 100, 100, 100, 100, 100, 100, 100, 100, 100, 100, 100, 100, 100, 100, 100, 100|
79, 20, 81, 93, 85, 80, 79, 78, 80, 100, 100, 100, 100, 100, 100, 100, 100, 100, 100, 100, 100, 100, 100, 100, 100, 100, 100, 100, 100, 100, 100, 100, 100, 100, 100, 100, 100, 100, 100|
68, 81, 56, 77, 85, 81, 85, 19, 50, 100, 100, 100, 100, 100, 100, 100, 100, 100, 100, 100, 100, 100, 100, 100, 100, 100, 100, 100, 100, 100, 100, 100, 100, 100, 100, 100, 100, 100, 100|
79, 84, 70, 74, 15, 79, 89, 74, 80, 100, 100, 100, 100, 100, 100, 100, 100, 100, 100, 100, 100, 100, 100, 100, 100, 100, 100, 100, 100, 100, 100, 100, 100, 100, 100, 100, 100, 100, 100|
68, 81, 52, 76, 84, 80, 84, 19, 48, 100, 100, 100, 100, 100, 100, 100, 100, 100, 100, 100, 100, 100, 100, 100, 100, 100, 100, 100, 100, 100, 100, 100, 100, 100, 100, 100, 100, 100, 100|
88, 86, 81, 0, 80, 86, 74, 78, 80, 100, 100, 100, 100, 100, 100, 100, 100, 100, 100, 100, 100, 100, 100, 100, 100, 100, 100, 100, 100, 100, 100, 100, 100, 100, 100, 100, 100, 100, 100|
17, 84, 81, 76, 80, 71, 74, 81, 80, 100, 100, 100, 100, 100, 100, 100, 100, 100, 100, 100, 100, 100, 100, 100, 100, 100, 100, 100, 100, 100, 100, 100, 100, 100, 100, 100, 100, 100, 100|
68, 76, 52, 74, 91, 78, 83, 19, 36, 100, 100, 100, 100, 100, 100, 100, 100, 100, 100, 100, 100, 100, 100, 100, 100, 100, 100, 100, 100, 100, 100, 100, 100, 100, 100, 100, 100, 100, 100|
79, 20, 81, 93, 85, 80, 79, 78, 80, 100, 100, 100, 100, 100, 100, 100, 100, 100, 100, 100, 100, 100, 100, 100, 100, 100, 100, 100, 100, 100, 100, 100, 100, 100, 100, 100, 100, 100, 100|
79, 20, 81, 93, 85, 80, 79, 78, 80, 100, 100, 100, 100, 100, 100, 100, 100, 100, 100, 100, 100, 100, 100, 100, 100, 100, 100, 100, 100, 100, 100, 100, 100, 100, 100, 100, 100, 100, 100|
71, 76, 56, 77, 85, 77, 81, 19, 50, 100, 100, 100, 100, 100, 100, 100, 100, 100, 100, 100, 100, 100, 100, 100, 100, 100, 100, 100, 100, 100, 100, 100, 100, 100, 100, 100, 100, 100, 100|
79, 84, 70, 76, 80, 76, 11, 81, 80, 100, 100, 100, 100, 100, 100, 100, 100, 100, 100, 100, 100, 100, 100, 100, 100, 100, 100, 100, 100, 100, 100, 100, 100, 100, 100, 100, 100, 100, 100|
79, 20, 81, 93, 85, 80, 79, 78, 80, 100, 100, 100, 100, 100, 100, 100, 100, 100, 100, 100, 100, 100, 100, 100, 100, 100, 100, 100, 100, 100, 100, 100, 100, 100, 100, 100, 100, 100, 100|
68, 78, 48, 74, 87, 78, 83, 19, 36, 100, 100, 100, 100, 100, 100, 100, 100, 100, 100, 100, 100, 100, 100, 100, 100, 100, 100, 100, 100, 100, 100, 100, 100, 100, 100, 100, 100, 100, 100|
79, 20, 81, 93, 85, 80, 79, 78, 80, 100, 100, 100, 100, 100, 100, 100, 100, 100, 100, 100, 100, 100, 100, 100, 100, 100, 100, 100, 100, 100, 100, 100, 100, 100, 100, 100, 100, 100, 100|
79, 20, 81, 93, 85, 80, 79, 78, 80, 100, 100, 100, 100, 100, 100, 100, 100, 100, 100, 100, 100, 100, 100, 100, 100, 100, 100, 100, 100, 100, 100, 100, 100, 100, 100, 100, 100, 100, 100|
79, 20, 81, 93, 85, 80, 79, 78, 80, 100, 100, 100, 100, 100, 100, 100, 100, 100, 100, 100, 100, 100, 100, 100, 100, 100, 100, 100, 100, 100, 100, 100, 100, 100, 100, 100, 100, 100, 100|
79, 20, 81, 93, 85, 80, 79, 78, 80, 100, 100, 100, 100, 100, 100, 100, 100, 100, 100, 100, 100, 100, 100, 100, 100, 100, 100, 100, 100, 100, 100, 100, 100, 100, 100, 100, 100, 100, 100|
71, 78, 56, 77, 85, 77, 81, 19, 50, 100, 100, 100, 100, 100, 100, 100, 100, 100, 100, 100, 100, 100, 100, 100, 100, 100, 100, 100, 100, 100, 100, 100, 100, 100, 100, 100, 100, 100, 100|
74, 76, 0, 81, 67, 78, 74, 52, 52, 100, 100, 100, 100, 100, 100, 100, 100, 100, 100, 100, 100, 100, 100, 100, 100, 100, 100, 100, 100, 100, 100, 100, 100, 100, 100, 100, 100, 100, 100|
71, 70, 52, 80, 80, 84, 80, 48, 0, 100, 100, 100, 100, 100, 100, 100, 100, 100, 100, 100, 100, 100, 100, 100, 100, 100, 100, 100, 100, 100, 100, 100, 100, 100, 100, 100, 100, 100, 100|
79, 20, 81, 93, 85, 80, 79, 78, 80, 100, 100, 100, 100, 100, 100, 100, 100, 100, 100, 100, 100, 100, 100, 100, 100, 100, 100, 100, 100, 100, 100, 100, 100, 100, 100, 100, 100, 100, 100|
79, 81, 74, 93, 70, 93, 58, 78, 15, 100, 100, 100, 100, 100, 100, 100, 100, 100, 100, 100, 100, 100, 100, 100, 100, 100, 100, 100, 100, 100, 100, 100, 100, 100, 100, 100, 100, 100, 100|
68, 78, 52, 78, 85, 78, 81, 0, 48, 100, 100, 100, 100, 100, 100, 100, 100, 100, 100, 100, 100, 100, 100, 100, 100, 100, 100, 100, 100, 100, 100, 100, 100, 100, 100, 100, 100, 100, 100|
79, 20, 81, 93, 85, 80, 79, 78, 80, 100, 100, 100, 100, 100, 100, 100, 100, 100, 100, 100, 100, 100, 100, 100, 100, 100, 100, 100, 100, 100, 100, 100, 100, 100, 100, 100, 100, 100, 100|];
